instances/in_60_30_6_3.dzn
n = 60;
k = 30;
h = 6;
tiles = array2d(1..n, 1..2,
[ 14,7
, 28,22
, 23,16
, 24,29
, 6,18
, 5,17
, 24,4
, 20,15
, 28,22
, 14,11
, 25,24
, 2,26
, 9,1
, 12,3
, 20,2
, 4,14
, 21,4
, 5,26
, 17,30
, 14,11
, 20,22
, 29,2
, 21,5
, 24,4
, 24,22
, 8,21
, 10,11
, 16,26
, 16,1
, 21,6
, 12,18
, 7,12
, 5,6
, 10,23
, 3,6
, 16,5
, 28,27
, 18,22
, 14,29
, 3,17
, 13,13
, 30,9
, 22,29
, 8,11
, 22,21
, 14,13
, 20,16
, 14,8
, 23,5
, 28,26
, 30,22
, 4,24
, 1,22
, 23,23
, 15,24
, 23,29
, 15,22
, 10,16
, 9,29
, 4,6
]);