instances/in_60_30_6_3.lp
#const n = 60.
#const k = 30.
#const h = 6.
tile(1,14,7).
tile(2,28,22).
tile(3,23,16).
tile(4,24,29).
tile(5,6,18).
tile(6,5,17).
tile(7,24,4).
tile(8,20,15).
tile(9,28,22).
tile(10,14,11).
tile(11,25,24).
tile(12,2,26).
tile(13,9,1).
tile(14,12,3).
tile(15,20,2).
tile(16,4,14).
tile(17,21,4).
tile(18,5,26).
tile(19,17,30).
tile(20,14,11).
tile(21,20,22).
tile(22,29,2).
tile(23,21,5).
tile(24,24,4).
tile(25,24,22).
tile(26,8,21).
tile(27,10,11).
tile(28,16,26).
tile(29,16,1).
tile(30,21,6).
tile(31,12,18).
tile(32,7,12).
tile(33,5,6).
tile(34,10,23).
tile(35,3,6).
tile(36,16,5).
tile(37,28,27).
tile(38,18,22).
tile(39,14,29).
tile(40,3,17).
tile(41,13,13).
tile(42,30,9).
tile(43,22,29).
tile(44,8,11).
tile(45,22,21).
tile(46,14,13).
tile(47,20,16).
tile(48,14,8).
tile(49,23,5).
tile(50,28,26).
tile(51,30,22).
tile(52,4,24).
tile(53,1,22).
tile(54,23,23).
tile(55,15,24).
tile(56,23,29).
tile(57,15,22).
tile(58,10,16).
tile(59,9,29).
tile(60,4,6).
